15 30
-7 5 6
13 6 -4
-10 -8 7
8 10 -6
14 -13 -2
-3 -9 -15
-1 5 9
-2 7 1
-5 7 -9
-2 4 -5
15 8 6
14 13 -5
7 1 -5
1 -8 15
-8 14 -15
-10 8 4
5 -11 2
14 7 -15
10 -8 -5
14 7 1
15 9 1
6 15 -4
-10 6 -12
11 14 -9
10 7 -6
6 -15 -8
-15 2 -7
14 3 -12
10 9 14
9 11 -15
